(set-logic QF_NRA)
; benchmark generated from python API
(set-info :status unknown)
(declare-fun v1y () Real)
(declare-fun oy () Real)
(declare-fun v1x () Real)
(declare-fun R2 () Real)
(declare-fun y1y () Real)
(declare-fun xy () Real)
(declare-fun y1x () Real)
(declare-fun xx () Real)
(declare-fun rho2 () Real)
(declare-fun y2y () Real)
(declare-fun y2x () Real)
(declare-fun b1y () Real)
(declare-fun b1x () Real)
(declare-fun b2y () Real)
(declare-fun b2x () Real)
(assert
 (let ((?x412 (* (- 1.0) v1x)))
 (let ((?x295 (* (- 1.0) R2)))
 (let ((?x403 (+ (+ (+ (+ (/ 1.0 4.0) (* oy oy)) (* v1x v1x)) (* v1y v1y)) ?x295)))
 (= (+ (+ ?x403 ?x412) (* (* (- 2.0) oy) v1y)) 0.0)))))
(assert
 (= (+ (+ (/ 1.0 4.0) (* oy oy)) (* (- 1.0) R2)) 0.0))
(assert
 (let ((?x395 (* (- 1.0) rho2)))
 (let ((?x16 (* y1y y1y)))
 (let ((?x303 (+ (+ (+ (+ (* xx xx) (* xy xy)) (* y1x y1x)) ?x16) ?x395)))
 (= (+ (+ ?x303 (* (* (- 2.0) xx) y1x)) (* (* (- 2.0) xy) y1y)) 0.0)))))
(assert
 (let ((?x395 (* (- 1.0) rho2)))
 (let ((?x181 (* y2y y2y)))
 (let ((?x571 (+ (+ (+ (+ (* xx xx) (* xy xy)) (* y2x y2x)) ?x181) ?x395)))
 (= (+ (+ ?x571 (* (* (- 2.0) xx) y2x)) (* (* (- 2.0) xy) y2y)) 0.0)))))
(assert
 (let ((?x395 (* (- 1.0) rho2)))
 (let ((?x338 (* xy xy)))
 (let ((?x81 (+ (+ (+ (+ (* b1x b1x) (* b1y b1y)) (* xx xx)) ?x338) ?x395)))
 (= (+ (+ ?x81 (* (* (- 2.0) b1x) xx)) (* (* (- 2.0) b1y) xy)) 0.0)))))
(assert
 (let ((?x395 (* (- 1.0) rho2)))
 (let ((?x338 (* xy xy)))
 (let ((?x10 (+ (+ (+ (+ (* b2x b2x) (* b2y b2y)) (* xx xx)) ?x338) ?x395)))
 (= (+ (+ ?x10 (* (* (- 2.0) b2x) xx)) (* (* (- 2.0) b2y) xy)) 0.0)))))
(assert
 (let ((?x357 (+ (+ (+ (+ (- (/ 1.0 4.0)) R2) xx) (* (- 1.0) (* oy oy))) (* (- 1.0) (* xx xx)))))
 (>= (+ (+ ?x357 (* (- 1.0) (* xy xy))) (* (* 2.0 oy) xy)) 0.0)))
(assert
 (let ((?x393 (+ (+ (+ (+ (- (/ 1.0 4.0)) R2) y1x) (* (- 1.0) (* oy oy))) (* (- 1.0) (* y1x y1x)))))
 (>= (+ (+ ?x393 (* (- 1.0) (* y1y y1y))) (* (* 2.0 oy) y1y)) 0.0)))
(assert
 (let ((?x49 (+ (+ (+ (+ (- (/ 1.0 4.0)) R2) y2x) (* (- 1.0) (* oy oy))) (* (- 1.0) (* y2x y2x)))))
 (>= (+ (+ ?x49 (* (- 1.0) (* y2y y2y))) (* (* 2.0 oy) y2y)) 0.0)))
(assert
 (let ((?x286 (* oy oy)))
 (let ((?x89 (* (- 1.0) ?x286)))
 (let ((?x52 (+ (+ (+ (+ (- (/ 1.0 4.0)) R2) b1x) (* (- 1.0) (* b1x b1x))) (* (- 1.0) (* b1y b1y)))))
 (>= (+ (+ ?x52 ?x89) (* (* 2.0 b1y) oy)) 0.0)))))
(assert
 (let ((?x286 (* oy oy)))
 (let ((?x89 (* (- 1.0) ?x286)))
 (let ((?x85 (+ (+ (+ (+ (- (/ 1.0 4.0)) R2) b2x) (* (- 1.0) (* b2x b2x))) (* (- 1.0) (* b2y b2y)))))
 (>= (+ (+ ?x85 ?x89) (* (* 2.0 b2y) oy)) 0.0)))))
(assert
 (>= (+ (+ (* v1x v1x) (* v1y v1y)) (* (- 1.0) v1x)) 0.0))
(assert
 (>= v1x 0.0))
(assert
 (>= (+ 1.0 (* (- 1.0) v1x)) 0.0))
(assert
 (> R2 0.0))
(assert
 (> rho2 0.0))
(assert
 (let ((?x372 (* (- 1.0) v1y)))
 (let ((?x191 (* ?x372 xy)))
 (> ?x191 0.0))))
(assert
 (let ((?x215 (+ (+ (* v1y v1y) (* (* (- 1.0) v1y) xy)) (* (* (- 1.0) xx) (* v1y v1y)))))
 (> (+ ?x215 (* (* v1x v1y) xy)) 0.0)))
(assert
 (> (+ (* xx (* v1y v1y)) (* (* (* (- 1.0) v1x) v1y) xy)) 0.0))
(assert
 (let ((?x372 (* (- 1.0) v1y)))
 (let ((?x415 (* ?x372 y1y)))
 (> ?x415 0.0))))
(assert
 (let ((?x38 (+ (+ (* v1y v1y) (* (* (- 1.0) v1y) y1y)) (* (* (- 1.0) y1x) (* v1y v1y)))))
 (> (+ ?x38 (* (* v1x v1y) y1y)) 0.0)))
(assert
 (> (+ (* y1x (* v1y v1y)) (* (* (* (- 1.0) v1x) v1y) y1y)) 0.0))
(assert
 (let ((?x372 (* (- 1.0) v1y)))
 (let ((?x125 (* ?x372 y2y)))
 (> ?x125 0.0))))
(assert
 (let ((?x75 (+ (+ (* v1y v1y) (* (* (- 1.0) v1y) y2y)) (* (* (- 1.0) y2x) (* v1y v1y)))))
 (> (+ ?x75 (* (* v1x v1y) y2y)) 0.0)))
(assert
 (> (+ (* y2x (* v1y v1y)) (* (* (* (- 1.0) v1x) v1y) y2y)) 0.0))
(assert
 (> (* b1y v1y) 0.0))
(assert
 (let ((?x41 (* b1y v1x)))
 (let ((?x102 (* ?x41 v1y)))
 (let ((?x33 (+ (+ (* v1y v1y) (* (* (- 1.0) b1x) (* v1y v1y))) (* (* (- 1.0) b1y) v1y))))
 (> (+ ?x33 ?x102) 0.0)))))
(assert
 (> (+ (* (* (- 1.0) b1x) (* v1y v1y)) (* (* b1y v1x) v1y)) 0.0))
(assert
 (> (* b2y v1y) 0.0))
(assert
 (let ((?x127 (* b2y v1x)))
 (let ((?x105 (* ?x127 v1y)))
 (let ((?x369 (+ (+ (* v1y v1y) (* (* (- 1.0) b2x) (* v1y v1y))) (* (* (- 1.0) b2y) v1y))))
 (> (+ ?x369 ?x105) 0.0)))))
(assert
 (> (+ (* (* (- 1.0) b2x) (* v1y v1y)) (* (* b2y v1x) v1y)) 0.0))
(assert
 (> (+ (* y1x y2y) (* (* (- 1.0) y1y) y2x)) 0.0))
(assert
 (> (+ (* xy y1x) (* (* (- 1.0) xx) y1y)) 0.0))
(assert
 (let ((?x58 (* (- 1.0) y1y)))
 (> ?x58 0.0)))
(assert
 (> (+ (* v1y y1x) (* (* (- 1.0) v1x) y1y)) 0.0))
(assert
 (> (+ (* b1y y1x) (* (* (- 1.0) b1x) y1y)) 0.0))
(assert
 (> (+ (* b2y y1x) (* (* (- 1.0) b2x) y1y)) 0.0))
(assert
 (> (+ (* xy y2x) (* (* (- 1.0) xx) y2y)) 0.0))
(assert
 (let ((?x39 (* (- 1.0) y2y)))
 (> ?x39 0.0)))
(assert
 (> (+ (* v1y y2x) (* (* (- 1.0) v1x) y2y)) 0.0))
(assert
 (> (+ (* b1y y2x) (* (* (- 1.0) b1x) y2y)) 0.0))
(assert
 (> (+ (* b2y y2x) (* (* (- 1.0) b2x) y2y)) 0.0))
(assert
 (let ((?x351 (* (- 1.0) xy)))
 (> ?x351 0.0)))
(assert
 (> (+ (* v1y xx) (* (* (- 1.0) v1x) xy)) 0.0))
(assert
 (> (+ (* b1y xx) (* (* (- 1.0) b1x) xy)) 0.0))
(assert
 (> (+ (* b2y xx) (* (* (- 1.0) b2x) xy)) 0.0))
(assert
 (> v1y 0.0))
(assert
 (> b1y 0.0))
(assert
 (> b2y 0.0))
(assert
 (> (+ (* b1y v1x) (* (* (- 1.0) b1x) v1y)) 0.0))
(assert
 (> (+ (* b2y v1x) (* (* (- 1.0) b2x) v1y)) 0.0))
(assert
 (> (+ (* b1x b2y) (* (* (- 1.0) b1y) b2x)) 0.0))
(assert
 (let ((?x58 (* (- 1.0) y1y)))
 (let ((?x118 (* ?x58 y2x)))
 (let ((?x310 (* (- 1.0) xx)))
 (let ((?x119 (* ?x310 y2y)))
 (let ((?x386 (+ (+ (+ (+ (* xx y1y) (* xy y2x)) (* y1x y2y)) ?x119) (* (* (- 1.0) xy) y1x))))
 (> (+ ?x386 ?x118) 0.0)))))))
(assert
 (let ((?x58 (* (- 1.0) y1y)))
 (let ((?x118 (* ?x58 y2x)))
 (> (+ (+ (+ y1y (* (- 1.0) y2y)) (* y1x y2y)) ?x118) 0.0))))
(assert
 (let ((?x58 (* (- 1.0) y1y)))
 (let ((?x118 (* ?x58 y2x)))
 (let ((?x372 (* (- 1.0) v1y)))
 (let ((?x320 (* ?x372 y1x)))
 (let ((?x412 (* (- 1.0) v1x)))
 (let ((?x134 (* ?x412 y2y)))
 (let ((?x401 (+ (+ (+ (+ (* v1x y1y) (* v1y y2x)) (* y1x y2y)) ?x134) ?x320)))
 (> (+ ?x401 ?x118) 0.0)))))))))
(assert
 (let ((?x58 (* (- 1.0) y1y)))
 (let ((?x118 (* ?x58 y2x)))
 (let ((?x329 (* (- 1.0) b1y)))
 (let ((?x212 (* ?x329 y1x)))
 (let ((?x97 (* (- 1.0) b1x)))
 (let ((?x355 (* ?x97 y2y)))
 (let ((?x421 (+ (+ (+ (+ (* b1x y1y) (* b1y y2x)) (* y1x y2y)) ?x355) ?x212)))
 (> (+ ?x421 ?x118) 0.0)))))))))
(assert
 (let ((?x58 (* (- 1.0) y1y)))
 (let ((?x118 (* ?x58 y2x)))
 (let ((?x121 (* (- 1.0) b2y)))
 (let ((?x407 (* ?x121 y1x)))
 (let ((?x241 (* (- 1.0) b2x)))
 (let ((?x21 (* ?x241 y2y)))
 (let ((?x135 (+ (+ (+ (+ (* b2x y1y) (* b2y y2x)) (* y1x y2y)) ?x21) ?x407)))
 (> (+ ?x135 ?x118) 0.0)))))))))
(assert
 (let ((?x310 (* (- 1.0) xx)))
 (let ((?x26 (* ?x310 y1y)))
 (> (+ (+ (+ y1y (* (- 1.0) xy)) (* xy y1x)) ?x26) 0.0))))
(assert
 (let ((?x310 (* (- 1.0) xx)))
 (let ((?x26 (* ?x310 y1y)))
 (let ((?x372 (* (- 1.0) v1y)))
 (let ((?x320 (* ?x372 y1x)))
 (let ((?x412 (* (- 1.0) v1x)))
 (let ((?x273 (* ?x412 xy)))
 (let ((?x319 (+ (+ (+ (+ (* v1x y1y) (* v1y xx)) (* xy y1x)) ?x273) ?x320)))
 (> (+ ?x319 ?x26) 0.0)))))))))
(assert
 (let ((?x310 (* (- 1.0) xx)))
 (let ((?x26 (* ?x310 y1y)))
 (let ((?x329 (* (- 1.0) b1y)))
 (let ((?x212 (* ?x329 y1x)))
 (let ((?x97 (* (- 1.0) b1x)))
 (let ((?x152 (* ?x97 xy)))
 (let ((?x141 (+ (+ (+ (+ (* b1x y1y) (* b1y xx)) (* xy y1x)) ?x152) ?x212)))
 (> (+ ?x141 ?x26) 0.0)))))))))
(assert
 (let ((?x310 (* (- 1.0) xx)))
 (let ((?x26 (* ?x310 y1y)))
 (let ((?x121 (* (- 1.0) b2y)))
 (let ((?x407 (* ?x121 y1x)))
 (let ((?x241 (* (- 1.0) b2x)))
 (let ((?x177 (* ?x241 xy)))
 (let ((?x468 (+ (+ (+ (+ (* b2x y1y) (* b2y xx)) (* xy y1x)) ?x177) ?x407)))
 (> (+ ?x468 ?x26) 0.0)))))))))
(assert
 (let ((?x372 (* (- 1.0) v1y)))
 (let ((?x320 (* ?x372 y1x)))
 (> (+ (+ (+ v1y (* (- 1.0) y1y)) (* v1x y1y)) ?x320) 0.0))))
(assert
 (let ((?x329 (* (- 1.0) b1y)))
 (let ((?x212 (* ?x329 y1x)))
 (> (+ (+ (+ b1y (* (- 1.0) y1y)) (* b1x y1y)) ?x212) 0.0))))
(assert
 (let ((?x121 (* (- 1.0) b2y)))
 (let ((?x407 (* ?x121 y1x)))
 (> (+ (+ (+ b2y (* (- 1.0) y1y)) (* b2x y1y)) ?x407) 0.0))))
(assert
 (let ((?x412 (* (- 1.0) v1x)))
 (let ((?x356 (* ?x412 y1y)))
 (let ((?x329 (* (- 1.0) b1y)))
 (let ((?x212 (* ?x329 y1x)))
 (let ((?x97 (* (- 1.0) b1x)))
 (let ((?x362 (* ?x97 v1y)))
 (let ((?x284 (+ (+ (+ (+ (* b1x y1y) (* b1y v1x)) (* v1y y1x)) ?x362) ?x212)))
 (> (+ ?x284 ?x356) 0.0)))))))))
(assert
 (let ((?x412 (* (- 1.0) v1x)))
 (let ((?x356 (* ?x412 y1y)))
 (let ((?x121 (* (- 1.0) b2y)))
 (let ((?x407 (* ?x121 y1x)))
 (let ((?x241 (* (- 1.0) b2x)))
 (let ((?x187 (* ?x241 v1y)))
 (let ((?x466 (+ (+ (+ (+ (* b2x y1y) (* b2y v1x)) (* v1y y1x)) ?x187) ?x407)))
 (> (+ ?x466 ?x356) 0.0)))))))))
(assert
 (let ((?x121 (* (- 1.0) b2y)))
 (let ((?x407 (* ?x121 y1x)))
 (let ((?x329 (* (- 1.0) b1y)))
 (let ((?x390 (* ?x329 b2x)))
 (let ((?x97 (* (- 1.0) b1x)))
 (let ((?x375 (* ?x97 y1y)))
 (let ((?x447 (+ (+ (+ (+ (* b1x b2y) (* b1y y1x)) (* b2x y1y)) ?x375) ?x390)))
 (> (+ ?x447 ?x407) 0.0)))))))))
(assert
 (let ((?x310 (* (- 1.0) xx)))
 (let ((?x119 (* ?x310 y2y)))
 (> (+ (+ (+ y2y (* (- 1.0) xy)) (* xy y2x)) ?x119) 0.0))))
(assert
 (let ((?x310 (* (- 1.0) xx)))
 (let ((?x119 (* ?x310 y2y)))
 (let ((?x372 (* (- 1.0) v1y)))
 (let ((?x56 (* ?x372 y2x)))
 (let ((?x412 (* (- 1.0) v1x)))
 (let ((?x273 (* ?x412 xy)))
 (let ((?x213 (+ (+ (+ (+ (* v1x y2y) (* v1y xx)) (* xy y2x)) ?x273) ?x56)))
 (> (+ ?x213 ?x119) 0.0)))))))))
(assert
 (let ((?x310 (* (- 1.0) xx)))
 (let ((?x119 (* ?x310 y2y)))
 (let ((?x329 (* (- 1.0) b1y)))
 (let ((?x475 (* ?x329 y2x)))
 (let ((?x97 (* (- 1.0) b1x)))
 (let ((?x152 (* ?x97 xy)))
 (let ((?x234 (+ (+ (+ (+ (* b1x y2y) (* b1y xx)) (* xy y2x)) ?x152) ?x475)))
 (> (+ ?x234 ?x119) 0.0)))))))))
(assert
 (let ((?x310 (* (- 1.0) xx)))
 (let ((?x119 (* ?x310 y2y)))
 (let ((?x121 (* (- 1.0) b2y)))
 (let ((?x217 (* ?x121 y2x)))
 (let ((?x241 (* (- 1.0) b2x)))
 (let ((?x177 (* ?x241 xy)))
 (let ((?x167 (+ (+ (+ (+ (* b2x y2y) (* b2y xx)) (* xy y2x)) ?x177) ?x217)))
 (> (+ ?x167 ?x119) 0.0)))))))))
(assert
 (let ((?x372 (* (- 1.0) v1y)))
 (let ((?x56 (* ?x372 y2x)))
 (> (+ (+ (+ v1y (* (- 1.0) y2y)) (* v1x y2y)) ?x56) 0.0))))
(assert
 (let ((?x329 (* (- 1.0) b1y)))
 (let ((?x475 (* ?x329 y2x)))
 (> (+ (+ (+ b1y (* (- 1.0) y2y)) (* b1x y2y)) ?x475) 0.0))))
(assert
 (let ((?x121 (* (- 1.0) b2y)))
 (let ((?x217 (* ?x121 y2x)))
 (> (+ (+ (+ b2y (* (- 1.0) y2y)) (* b2x y2y)) ?x217) 0.0))))
(assert
 (let ((?x412 (* (- 1.0) v1x)))
 (let ((?x134 (* ?x412 y2y)))
 (let ((?x329 (* (- 1.0) b1y)))
 (let ((?x475 (* ?x329 y2x)))
 (let ((?x97 (* (- 1.0) b1x)))
 (let ((?x362 (* ?x97 v1y)))
 (let ((?x456 (+ (+ (+ (+ (* b1x y2y) (* b1y v1x)) (* v1y y2x)) ?x362) ?x475)))
 (> (+ ?x456 ?x134) 0.0)))))))))
(assert
 (let ((?x412 (* (- 1.0) v1x)))
 (let ((?x134 (* ?x412 y2y)))
 (let ((?x121 (* (- 1.0) b2y)))
 (let ((?x217 (* ?x121 y2x)))
 (let ((?x241 (* (- 1.0) b2x)))
 (let ((?x187 (* ?x241 v1y)))
 (let ((?x485 (+ (+ (+ (+ (* b2x y2y) (* b2y v1x)) (* v1y y2x)) ?x187) ?x217)))
 (> (+ ?x485 ?x134) 0.0)))))))))
(assert
 (let ((?x121 (* (- 1.0) b2y)))
 (let ((?x217 (* ?x121 y2x)))
 (let ((?x329 (* (- 1.0) b1y)))
 (let ((?x390 (* ?x329 b2x)))
 (let ((?x97 (* (- 1.0) b1x)))
 (let ((?x355 (* ?x97 y2y)))
 (let ((?x278 (+ (+ (+ (+ (* b1x b2y) (* b1y y2x)) (* b2x y2y)) ?x355) ?x390)))
 (> (+ ?x278 ?x217) 0.0)))))))))
(assert
 (let ((?x455 (+ (+ (+ v1y (* (- 1.0) xy)) (* v1x xy)) (* (* (- 1.0) v1y) xx))))
 (> ?x455 0.0)))
(assert
 (let ((?x329 (* (- 1.0) b1y)))
 (let ((?x462 (* ?x329 xx)))
 (> (+ (+ (+ b1y (* (- 1.0) xy)) (* b1x xy)) ?x462) 0.0))))
(assert
 (let ((?x121 (* (- 1.0) b2y)))
 (let ((?x460 (* ?x121 xx)))
 (> (+ (+ (+ b2y (* (- 1.0) xy)) (* b2x xy)) ?x460) 0.0))))
(assert
 (let ((?x412 (* (- 1.0) v1x)))
 (let ((?x273 (* ?x412 xy)))
 (let ((?x329 (* (- 1.0) b1y)))
 (let ((?x462 (* ?x329 xx)))
 (let ((?x97 (* (- 1.0) b1x)))
 (let ((?x362 (* ?x97 v1y)))
 (let ((?x272 (+ (+ (+ (+ (* b1x xy) (* b1y v1x)) (* v1y xx)) ?x362) ?x462)))
 (> (+ ?x272 ?x273) 0.0)))))))))
(assert
 (let ((?x412 (* (- 1.0) v1x)))
 (let ((?x273 (* ?x412 xy)))
 (let ((?x121 (* (- 1.0) b2y)))
 (let ((?x460 (* ?x121 xx)))
 (let ((?x241 (* (- 1.0) b2x)))
 (let ((?x187 (* ?x241 v1y)))
 (let ((?x24 (+ (+ (+ (+ (* b2x xy) (* b2y v1x)) (* v1y xx)) ?x187) ?x460)))
 (> (+ ?x24 ?x273) 0.0)))))))))
(assert
 (let ((?x121 (* (- 1.0) b2y)))
 (let ((?x460 (* ?x121 xx)))
 (let ((?x329 (* (- 1.0) b1y)))
 (let ((?x390 (* ?x329 b2x)))
 (let ((?x97 (* (- 1.0) b1x)))
 (let ((?x152 (* ?x97 xy)))
 (let ((?x279 (+ (+ (+ (+ (* b1x b2y) (* b1y xx)) (* b2x xy)) ?x152) ?x390)))
 (> (+ ?x279 ?x460) 0.0)))))))))
(assert
 (let ((?x97 (* (- 1.0) b1x)))
 (let ((?x362 (* ?x97 v1y)))
 (> (+ (+ (+ v1y (* (- 1.0) b1y)) (* b1y v1x)) ?x362) 0.0))))
(assert
 (let ((?x241 (* (- 1.0) b2x)))
 (let ((?x187 (* ?x241 v1y)))
 (> (+ (+ (+ v1y (* (- 1.0) b2y)) (* b2y v1x)) ?x187) 0.0))))
(assert
 (let ((?x329 (* (- 1.0) b1y)))
 (let ((?x390 (* ?x329 b2x)))
 (> (+ (+ (+ b1y (* (- 1.0) b2y)) (* b1x b2y)) ?x390) 0.0))))
(assert
 (let ((?x329 (* (- 1.0) b1y)))
(let ((?x390 (* ?x329 b2x)))
(let ((?x97 (* (- 1.0) b1x)))
(let ((?x362 (* ?x97 v1y)))
(let ((?x123 (+ (+ (+ (+ (* b1x b2y) (* b1y v1x)) (* b2x v1y)) ?x362) ?x390)))
(> (+ ?x123 (* (* (- 1.0) b2y) v1x)) 0.0)))))))
(check-sat)
